\ENCODING=ISO-8859-1
\Problem name: c22v76i0o22

Maximize
 obj: - 15000 x1 - 12000 x2 - 9000 x3 - 7000 x4 - 6000 x5 + 300000 x6
      + 425000 x7 + 475000 x8 + 350000 x9 + 510000 x10 + 570000 x11
      + 420000 x12 + 340000 x13 + 380000 x14 + 280000 x15 + 467500 x16
      + 522500 x17 + 385000 x18 + 210000 x19 + 297500 x20 + 332500 x21
      + 245000 x22
Subject To
 c1:  - x1 + x6 <= 0
 c2:  - x1 + x7 <= 0
 c3:  - x1 + x8 <= 0
 c4:  - x1 + x9 <= 0
 c5:  - x2 + x10 <= 0
 c6:  - x2 + x11 <= 0
 c7:  - x2 + x12 <= 0
 c8:  - x3 + x13 <= 0
 c9:  - x3 + x14 <= 0
 c10: - x3 + x15 <= 0
 c11: - x4 + x16 <= 0
 c12: - x4 + x17 <= 0
 c13: - x4 + x18 <= 0
 c14: - x5 + x19 <= 0
 c15: - x5 + x20 <= 0
 c16: - x5 + x21 <= 0
 c17: - x5 + x22 <= 0
 c18: x6 + x19 <= 1
 c19: x7 + x10 + x13 + x16 + x20 <= 1
 c20: x8 + x11 + x14 + x17 + x21 <= 1
 c21: x9 + x12 + x15 + x18 + x22 <= 1
 c22: 2 x6 - x19 >= 0
 c23: - 5 x7 - 2 x10 + 2 x13 + 3 x16 + 4 x20 >= 0
 c24: - 4 x8 + 4 x11 - 4 x14 + 2 x17 + 4 x21 >= 0
 c25: - 5 x1 + 2 x2 - 1000000000 x7 >= -1000000000
 c26: - 4 x1 - 4 x2 - 1000000000 x8 >= -1000000000
 c27: 2 x1 - 9 x2 - 1000000000 x9 >= -1000000000
 c28: - 5 x1 - 2 x3 - 1000000000 x7 >= -1000000000
 c29: - 4 x1 + 4 x3 - 1000000000 x8 >= -1000000000
 c30: 2 x1 - 4 x3 - 1000000000 x9 >= -1000000000
 c31: - 5 x1 - 3 x4 - 1000000000 x7 >= -1000000000
 c32: - 4 x1 - 2 x4 - 1000000000 x8 >= -1000000000
 c33: 2 x1 - 3 x4 - 1000000000 x9 >= -1000000000
 c34: - 5 x1 - 4 x5 - 1000000000 x7 >= -1000000000
 c35: - 4 x1 - 4 x5 - 1000000000 x8 >= -1000000000
 c36: 2 x1 - 4 x5 - 1000000000 x9 >= -1000000000
 c37: 5 x1 - 2 x2 - 1000000000 x10 >= -1000000000
 c38: - 2 x1 + 9 x2 - 1000000000 x12 >= -1000000000
 c39: - 2 x2 - 2 x3 - 1000000000 x10 >= -1000000000
 c40: 9 x2 - 4 x3 - 1000000000 x12 >= -1000000000
 c41: - 2 x2 - 3 x4 - 1000000000 x10 >= -1000000000
 c42: 4 x2 - 2 x4 - 1000000000 x11 >= -1000000000
 c43: 9 x2 - 3 x4 - 1000000000 x12 >= -1000000000
 c44: - 2 x2 - 4 x5 - 1000000000 x10 >= -1000000000
 c45: 4 x2 - 4 x5 - 1000000000 x11 >= -1000000000
 c46: 9 x2 - 4 x5 - 1000000000 x12 >= -1000000000
 c47: 4 x1 - 4 x3 - 1000000000 x14 >= -1000000000
 c48: - 2 x1 + 4 x3 - 1000000000 x15 >= -1000000000
 c49: - 4 x2 - 4 x3 - 1000000000 x14 >= -1000000000
 c50: - 9 x2 + 4 x3 - 1000000000 x15 >= -1000000000
 c51: 2 x3 - 3 x4 - 1000000000 x13 >= -1000000000
 c52: - 4 x3 - 2 x4 - 1000000000 x14 >= -1000000000
 c53: 4 x3 - 3 x4 - 1000000000 x15 >= -1000000000
 c54: 2 x3 - 4 x5 - 1000000000 x13 >= -1000000000
 c55: - 4 x3 - 4 x5 - 1000000000 x14 >= -1000000000
 c56: 4 x3 - 4 x5 - 1000000000 x15 >= -1000000000
 c57: - 2 x1 + 3 x4 - 1000000000 x18 >= -1000000000
 c58: - 4 x2 + 2 x4 - 1000000000 x17 >= -1000000000
 c59: - 9 x2 + 3 x4 - 1000000000 x18 >= -1000000000
 c60: - 2 x3 + 3 x4 - 1000000000 x16 >= -1000000000
 c61: - 4 x3 + 3 x4 - 1000000000 x18 >= -1000000000
 c62: 3 x4 - 4 x5 - 1000000000 x16 >= -1000000000
 c63: 2 x4 - 4 x5 - 1000000000 x17 >= -1000000000
 c64: 3 x4 - 4 x5 - 1000000000 x18 >= -1000000000
 c65: - 2 x1 - x5 - 1000000000 x19 >= -1000000000
 c66: - 2 x1 + 4 x5 - 1000000000 x22 >= -1000000000
 c67: 3 x2 - x5 - 1000000000 x19 >= -1000000000
 c68: - 4 x2 + 4 x5 - 1000000000 x21 >= -1000000000
 c69: - 9 x2 + 4 x5 - 1000000000 x22 >= -1000000000
 c70: 4 x3 - x5 - 1000000000 x19 >= -1000000000
 c71: - 2 x3 + 4 x5 - 1000000000 x20 >= -1000000000
 c72: - 4 x3 + 4 x5 - 1000000000 x22 >= -1000000000
 c73: 4 x4 - x5 - 1000000000 x19 >= -1000000000
 c74: - 3 x4 + 4 x5 - 1000000000 x20 >= -1000000000
 c75: - 2 x4 + 4 x5 - 1000000000 x21 >= -1000000000
 c76: - 3 x4 + 4 x5 - 1000000000 x22 >= -1000000000
Bounds
 0 <= x1 <= 1
 0 <= x2 <= 1
 0 <= x3 <= 1
 0 <= x4 <= 1
 0 <= x5 <= 1
 0 <= x6 <= 1
 0 <= x7 <= 1
 0 <= x8 <= 1
 0 <= x9 <= 1
 0 <= x10 <= 1
 0 <= x11 <= 1
 0 <= x12 <= 1
 0 <= x13 <= 1
 0 <= x14 <= 1
 0 <= x15 <= 1
 0 <= x16 <= 1
 0 <= x17 <= 1
 0 <= x18 <= 1
 0 <= x19 <= 1
 0 <= x20 <= 1
 0 <= x21 <= 1
 0 <= x22 <= 1
Binaries
 x1  x2  x3  x4  x5  x6  x7  x8  x9  x10  x11  x12  x13  x14  x15  x16  x17 
 x18  x19  x20  x21  x22 
End
